50
0,6,3,10
1,8,3,10
2,3,3,10
3,5,3,10
4,4,3,10
5,4,3,10
6,4,3,10
7,5,3,10
8,6,3,10
9,7,3,10
10,6,3,10
11,8,3,10
12,4,3,10
13,9,3,10
14,3,3,10
15,8,3,10
16,6,3,10
17,7,3,10
18,4,3,10
19,4,3,10
20,9,3,10
21,10,3,10
22,5,3,10
23,8,3,10
24,9,3,10
25,9,3,10
26,4,3,10
27,3,3,10
28,4,3,10
29,9,3,10
30,4,3,10
31,6,3,10
32,10,3,10
33,7,3,10
34,8,3,10
35,5,3,10
36,8,3,10
37,9,3,10
38,3,3,10
39,8,3,10
40,10,3,10
41,8,3,10
42,5,3,10
43,9,3,10
44,4,3,10
45,6,3,10
46,9,3,10
47,5,3,10
48,5,3,10
49,4,3,10
49
0,1,2
48,49
47,49
46,49
2,3,4,5,19,20,43
1,6,17,29,38
5,7,8,36,37
6,9,11
4,10,15
11,12,13,32,35
3,14,26
7,16
10,18,28
19,21
21,22,24
14,23,25
8,27
12,30
18,31,34
20,33
9,39
26,40
32,41,42,48
38,44,45
27,46
43,47
13,22
15,41
16,35
17,41
22,30
23,30
24,39
25,45
28,48
29,48
30,31
31,33
33,42
34,37
35,39
36,40
37,47
39,48
40,41
41,47
42,45
44,48
45,46
